\ LP format - for model browsing. Use MPS format to capture full model detail.
Minimize
  0 B10(0) + 0 B11(0) + 0 B13(0) + 0 B16(0) + 0 B17(0) + 0 B22(0) + 0 B23(0)
   + 0 B24(0) + 0 B25(0) + 0 B28(0) + 0 B29(0) + 0 B30(0) + 0 B31(0)
   + 0 B34(0) + 0 B35(0) + 0 B36(0) + 0 B37(0) + 0 B38(0) + 0 B39(0)
   + 0 B40(0) + 0 B41(0) + 0 B42(0) + 0 B43(0) + 0 B44(0) + 0 B45(0)
   + I56(1)
Subject To
 c0: B0(13) = 1
 c1: B1(12) + B2(13) = 1
 c2: B3(14) + B4(12) = 1
 c3: B5(11) = 1
 c4: B6(14) + B7(14) = 1
 c5: B8(12) + B9(12) = 1
 c6: - 1e+09 B0(13) + I46(13) <= 0
 c7: - 1e+09 B1(12) + I47(14) <= 0
 c8: - 1e+09 B2(13) + I48(16) <= 0
 c9: - 1e+09 B3(14) + I49(15) <= 0
 c10: - 1e+09 B4(12) + I50(13) <= 0
 c11: - 1e+09 B5(11) + I51(14) <= 0
 c12: - 1e+09 B6(14) + I52(14) <= 0
 c13: - 1e+09 B7(14) + I53(14) <= 0
 c14: - 1e+09 B8(12) + I54(15) <= 0
 c15: - 1e+09 B9(12) + I55(15) <= 0
 c16: - 43 B0(13) - I46(13) + I47(14) + I48(16) >= 0
 c17: - 1.000000043e+09 B0(13) - 1e+09 B1(12) - I46(13) + I47(14) + I48(16)
   >= -1.999999993e+09
 c18: - 63 B3(14) - 53 B4(12) - I49(15) - I50(13) + I51(14) >= 0
 c19: - 63 B3(14) - 1.000000053e+09 B4(12) - 1e+09 B5(11) - I49(15)
   - I50(13) + I51(14) >= -1.999999993e+09
 c20: - 125 B6(14) - 135 B7(14) - I52(14) - I53(14) + I54(15) + I55(15)
   >= 0
 c21: - 1.000000125e+09 B6(14) - 135 B7(14) - 1e+09 B8(12) - I52(14)
   - I53(14) + I54(15) + I55(15) >= -1.999999991e+09
 c22: - 125 B6(14) - 1.000000135e+09 B7(14) - 1e+09 B9(12) - I52(14)
   - I53(14) + I54(15) + I55(15) >= -1.999999991e+09
 c23: - 1e+09 B0(13) - 1e+09 B3(14) - 1e+09 B12(2) + I46(13) - I49(15)
   >= -2.99999993e+09
 c24: - 1e+09 B0(13) - 1e+09 B3(14) + 1e+09 B12(2) - I46(13) + I49(15)
   >= -1.999999948e+09
 c25: - 1e+09 B0(13) - 1e+09 B6(14) - 1e+09 B14(2) + I46(13) - I52(14)
   >= -2.999999867e+09
 c26: - 1e+09 B0(13) - 1e+09 B6(14) + 1e+09 B14(2) - I46(13) + I52(14)
   >= -1.999999949e+09
 c27: - 1e+09 B0(13) - 1e+09 B8(12) - 1e+09 B15(2) + I46(13) - I54(15)
   >= -2.999999949e+09
 c28: - 1e+09 B0(13) - 1e+09 B8(12) + 1e+09 B15(2) - I46(13) + I54(15)
   >= -1.99999995e+09
 c29: - 1e+09 B1(12) - 1e+09 B3(14) - 1e+09 B18(4) + I47(14) - I49(15)
   >= -2.99999993e+09
 c30: - 1e+09 B1(12) - 1e+09 B3(14) + 1e+09 B18(4) - I47(14) + I49(15)
   >= -1.999999905e+09
 c31: - 1e+09 B2(13) - 1e+09 B4(12) - 1e+09 B18(4) + I48(16) - I50(13)
   >= -2.999999941e+09
 c32: - 1e+09 B2(13) - 1e+09 B4(12) + 1e+09 B18(4) - I48(16) + I50(13)
   >= -1.999999896e+09
 c33: - 1e+09 B2(13) - 1e+09 B5(11) - 1e+09 B19(2) + I48(16) - I51(14)
   >= -2.999999919e+09
 c34: - 1e+09 B2(13) - 1e+09 B5(11) + 1e+09 B19(2) - I48(16) + I51(14)
   >= -1.999999899e+09
 c35: - 1e+09 B1(12) - 1e+09 B6(14) - 1e+09 B20(4) + I47(14) - I52(14)
   >= -2.999999867e+09
 c36: - 1e+09 B1(12) - 1e+09 B6(14) + 1e+09 B20(4) - I47(14) + I52(14)
   >= -1.999999903e+09
 c37: - 1e+09 B2(13) - 1e+09 B7(14) - 1e+09 B20(4) + I48(16) - I53(14)
   >= -2.999999858e+09
 c38: - 1e+09 B2(13) - 1e+09 B7(14) + 1e+09 B20(4) - I48(16) + I53(14)
   >= -1.999999896e+09
 c39: - 1e+09 B1(12) - 1e+09 B8(12) - 1e+09 B21(4) + I47(14) - I54(15)
   >= -2.99999995e+09
 c40: - 1e+09 B1(12) - 1e+09 B8(12) + 1e+09 B21(4) - I47(14) + I54(15)
   >= -1.999999906e+09
 c41: - 1e+09 B2(13) - 1e+09 B9(12) - 1e+09 B21(4) + I48(16) - I55(15)
   >= -2.999999932e+09
 c42: - 1e+09 B2(13) - 1e+09 B9(12) + 1e+09 B21(4) - I48(16) + I55(15)
   >= -1.999999899e+09
 c43: - 1e+09 B3(14) - 1e+09 B6(14) - 1e+09 B26(4) + I49(15) - I52(14)
   >= -2.999999869e+09
 c44: - 1e+09 B3(14) - 1e+09 B6(14) + 1e+09 B26(4) - I49(15) + I52(14)
   >= -1.99999993e+09
 c45: - 1e+09 B4(12) - 1e+09 B7(14) - 1e+09 B26(4) + I50(13) - I53(14)
   >= -2.999999857e+09
 c46: - 1e+09 B4(12) - 1e+09 B7(14) + 1e+09 B26(4) - I50(13) + I53(14)
   >= -1.99999994e+09
 c47: - 1e+09 B3(14) - 1e+09 B8(12) - 1e+09 B27(4) + I49(15) - I54(15)
   >= -2.999999949e+09
 c48: - 1e+09 B3(14) - 1e+09 B8(12) + 1e+09 B27(4) - I49(15) + I54(15)
   >= -1.99999993e+09
 c49: - 1e+09 B4(12) - 1e+09 B9(12) - 1e+09 B27(4) + I50(13) - I55(15)
   >= -2.99999993e+09
 c50: - 1e+09 B4(12) - 1e+09 B9(12) + 1e+09 B27(4) - I50(13) + I55(15)
   >= -1.999999941e+09
 c51: - 1e+09 B5(11) - 1e+09 B7(14) - 1e+09 B32(2) + I51(14) - I53(14)
   >= -2.999999857e+09
 c52: - 1e+09 B5(11) - 1e+09 B7(14) + 1e+09 B32(2) - I51(14) + I53(14)
   >= -1.99999992e+09
 c53: - 1e+09 B5(11) - 1e+09 B9(12) - 1e+09 B33(2) + I51(14) - I55(15)
   >= -2.999999931e+09
 c54: - 1e+09 B5(11) - 1e+09 B9(12) + 1e+09 B33(2) - I51(14) + I55(15)
   >= -1.99999992e+09
 c55: - 12 B0(13) + I46(13) >= 0
 c56: I46(13) >= 0
 c57: - 12 B1(12) + I47(14) >= 0
 c58: I47(14) >= 0
 c59: - 12 B2(13) + I48(16) >= 0
 c60: I48(16) >= 0
 c61: I49(15) >= 0
 c62: I49(15) >= 0
 c63: I50(13) >= 0
 c64: I50(13) >= 0
 c65: I51(14) >= 0
 c66: I51(14) >= 0
 c67: - 8 B6(14) + I52(14) >= 0
 c68: I52(14) >= 0
 c69: - 8 B7(14) + I53(14) >= 0
 c70: I53(14) >= 0
 c71: - 8 B8(12) + I54(15) >= 0
 c72: I54(15) >= 0
 c73: - 8 B9(12) + I55(15) >= 0
 c74: I55(15) >= 0
 c75: 43 B0(13) + I46(13) - 1e+09 B57(2) >= -9.99999935e+08
 c76: 43 B0(13) + I46(13) - 1e+09 B57(2) <= 65
 c77: 87 B1(12) + I47(14) - 1e+09 B58(4) >= -9.99999935e+08
 c78: 87 B1(12) + I47(14) - 1e+09 B58(4) <= 65
 c79: 95 B2(13) + I48(16) - 1e+09 B59(4) >= -9.99999935e+08
 c80: 95 B2(13) + I48(16) - 1e+09 B59(4) <= 65
 c81: 63 B3(14) + I49(15) - 1e+09 B60(2) >= -9.99999942e+08
 c82: 63 B3(14) + I49(15) - 1e+09 B60(2) <= 58
 c83: 53 B4(12) + I50(13) - 1e+09 B61(2) >= -9.99999942e+08
 c84: 53 B4(12) + I50(13) - 1e+09 B61(2) <= 58
 c85: 73 B5(11) + I51(14) - 1e+09 B62(4) >= -9.99999942e+08
 c86: 73 B5(11) + I51(14) - 1e+09 B62(4) <= 58
 c87: 125 B6(14) + I52(14) - 1e+09 B63(2) >= -9.99999968e+08
 c88: 125 B6(14) + I52(14) - 1e+09 B63(2) <= 32
 c89: 135 B7(14) + I53(14) - 1e+09 B64(2) >= -9.99999968e+08
 c90: 135 B7(14) + I53(14) - 1e+09 B64(2) <= 32
 c91: 43 B8(12) + I54(15) - 1e+09 B65(4) >= -9.99999968e+08
 c92: 43 B8(12) + I54(15) - 1e+09 B65(4) <= 32
 c93: 61 B9(12) + I55(15) - 1e+09 B66(4) >= -9.99999968e+08
 c94: 61 B9(12) + I55(15) - 1e+09 B66(4) <= 32
 qc0: I56(1) - 22 B58(4) - 30 B59(4) - 15 B62(4) - 11 B65(4) - 29 B66(4)
   + [ - I47(14) * B58(4) - I48(16) * B59(4) - I51(14) * B62(4)
   - I54(15) * B65(4) - I55(15) * B66(4) ] >= 0
Bounds
Binaries
 B0(13) B1(12) B2(13) B3(14) B4(12) B5(11) B6(14) B7(14) B8(12) B9(12)
 B10(0) B11(0) B12(2) B13(0) B14(2) B15(2) B16(0) B17(0) B18(4) B19(2)
 B20(4) B21(4) B22(0) B23(0) B24(0) B25(0) B26(4) B27(4) B28(0) B29(0)
 B30(0) B31(0) B32(2) B33(2) B34(0) B35(0) B36(0) B37(0) B38(0) B39(0)
 B40(0) B41(0) B42(0) B43(0) B44(0) B45(0) B57(2) B58(4) B59(4) B60(2)
 B61(2) B62(4) B63(2) B64(2) B65(4) B66(4)
Generals
 I46(13) I47(14) I48(16) I49(15) I50(13) I51(14) I52(14) I53(14) I54(15)
 I55(15) I56(1)
End
